NAME          ClpDefau  FREE
ROWS
 N  OBJROW
 L  ZMUNI1_PCT
 L  ZMUNI2_PCT
 L  ZMUNI3_PCT
 L  ZMUNI4_PCT
 L  ZMUNI5_PCT
 L  ZMUNI6_PCT
 L  ZMUNI7_PCT
 L  ZMUNI8_PCT
 L  ZMUNI9_PCT
COLUMNS
    QMUNI1 OBJROW 1.          
    QMUNI1 ZMUNI1_PCT 29207.8018  
    QMUNI1 ZMUNI2_PCT 1720.6192   
    QMUNI1 ZMUNI3_PCT 4206.2759   
    QMUNI1 ZMUNI4_PCT 3077.7931   
    QMUNI1 ZMUNI5_PCT  -341.2247  
    QMUNI1 ZMUNI6_PCT  -76.6754   
    QMUNI1 ZMUNI7_PCT 1649.4751   
    QMUNI1 ZMUNI8_PCT 1296.0434   
    QMUNI1 ZMUNI9_PCT 364.4943    
    QMUNI2 OBJROW 1.          
    QMUNI2 ZMUNI1_PCT 2014.9231   
    QMUNI2 ZMUNI2_PCT 35025.5966  
    QMUNI2 ZMUNI3_PCT 2832.222    
    QMUNI2 ZMUNI4_PCT 2951.8128   
    QMUNI2 ZMUNI5_PCT 305.5573    
    QMUNI2 ZMUNI6_PCT 396.1563    
    QMUNI2 ZMUNI7_PCT 1532.7453   
    QMUNI2 ZMUNI8_PCT 1758.9569   
    QMUNI2 ZMUNI9_PCT 1666.8319   
    QMUNI3 OBJROW 1.          
    QMUNI3 ZMUNI1_PCT 3989.4104   
    QMUNI3 ZMUNI2_PCT 2442.5506   
    QMUNI3 ZMUNI3_PCT 30539.7034  
    QMUNI3 ZMUNI4_PCT 4942.3218   
    QMUNI3 ZMUNI5_PCT  -365.0665  
    QMUNI3 ZMUNI6_PCT  -207.901   
    QMUNI3 ZMUNI7_PCT 1251.9836   
    QMUNI3 ZMUNI8_PCT 1166.3436   
    QMUNI3 ZMUNI9_PCT 276.947     
    QMUNI4 OBJROW 1.          
    QMUNI4 ZMUNI1_PCT 3466.4154   
    QMUNI4 ZMUNI2_PCT 3183.5556   
    QMUNI4 ZMUNI3_PCT 5656.4331   
    QMUNI4 ZMUNI4_PCT 108420.4674 
    QMUNI4 ZMUNI5_PCT  -179.2908  
    QMUNI4 ZMUNI6_PCT 15.4495     
    QMUNI4 ZMUNI7_PCT 1382.0648   
    QMUNI4 ZMUNI8_PCT 1362.0376   
    QMUNI4 ZMUNI9_PCT 825.5005    
    QMUNI5 OBJROW 1.          
    QMUNI5 ZMUNI1_PCT  -62.7518   
    QMUNI5 ZMUNI2_PCT  -104.1413  
    QMUNI5 ZMUNI3_PCT  -70.1904   
    QMUNI5 ZMUNI4_PCT  -55.4085   
    QMUNI5 ZMUNI5_PCT 35386.0855  
    QMUNI5 ZMUNI6_PCT 2104.3777   
    QMUNI5 ZMUNI7_PCT  -242.9963  
    QMUNI5 ZMUNI8_PCT  -310.1349  
    QMUNI5 ZMUNI9_PCT  -413.3225  
    QMUNI6 OBJROW 1.          
    QMUNI6 ZMUNI1_PCT 221.6339    
    QMUNI6 ZMUNI2_PCT  -11.2534   
    QMUNI6 ZMUNI3_PCT 142.2882    
    QMUNI6 ZMUNI4_PCT 113.1058    
    QMUNI6 ZMUNI5_PCT 2464.6759   
    QMUNI6 ZMUNI6_PCT 32743.8354  
    QMUNI6 ZMUNI7_PCT 180.0537    
    QMUNI6 ZMUNI8_PCT  -1.7167    
    QMUNI6 ZMUNI9_PCT  -251.3886  
    QMUNI7 OBJROW 1.          
    QMUNI7 ZMUNI1_PCT 1578.7124   
    QMUNI7 ZMUNI2_PCT 933.4564    
    QMUNI7 ZMUNI3_PCT 1400.7568   
    QMUNI7 ZMUNI4_PCT 1089.1915   
    QMUNI7 ZMUNI5_PCT 342.5598    
    QMUNI7 ZMUNI6_PCT 534.0576    
    QMUNI7 ZMUNI7_PCT 31708.908   
    QMUNI7 ZMUNI8_PCT 2614.5935   
    QMUNI7 ZMUNI9_PCT 944.7098    
    QMUNI8 OBJROW 1.          
    QMUNI8 ZMUNI1_PCT 1294.7082   
    QMUNI8 ZMUNI2_PCT 1089.859    
    QMUNI8 ZMUNI3_PCT 1308.6319   
    QMUNI8 ZMUNI4_PCT 1036.0718   
    QMUNI8 ZMUNI5_PCT 74.5773     
    QMUNI8 ZMUNI6_PCT 206.3751    
    QMUNI8 ZMUNI7_PCT 2833.1756   
    QMUNI8 ZMUNI8_PCT 29711.5325  
    QMUNI8 ZMUNI9_PCT 1757.6217   
    QMUNI9 OBJROW 1.          
    QMUNI9 ZMUNI1_PCT 619.8883    
    QMUNI9 ZMUNI2_PCT 912.2848    
    QMUNI9 ZMUNI3_PCT 723.6481    
    QMUNI9 ZMUNI4_PCT 655.1743    
    QMUNI9 ZMUNI5_PCT 144.7678    
    QMUNI9 ZMUNI6_PCT 144.577     
    QMUNI9 ZMUNI7_PCT 857.1624    
    QMUNI9 ZMUNI8_PCT 1376.152    
    QMUNI9 ZMUNI9_PCT 28137.3977  
RHS
    RHS ZMUNI1_PCT 0.0681292416
    RHS ZMUNI2_PCT -0.046661945
    RHS ZMUNI3_PCT 0.016193758 
    RHS ZMUNI4_PCT  -0.17282313
    RHS ZMUNI5_PCT -0.077613919
    RHS ZMUNI6_PCT -0.053715936
    RHS ZMUNI7_PCT -0.026017702
    RHS ZMUNI8_PCT -0.054082473
    RHS ZMUNI9_PCT  -0.10153514
BOUNDS
 LO BOUND QMUNI1 -0.000760439
 UP BOUND QMUNI1      1.1e+10
 LO BOUND QMUNI2 -0.000532232
 UP BOUND QMUNI2      1.1e+10
 LO BOUND QMUNI3 -0.000597303
 UP BOUND QMUNI3      1.1e+10
 LO BOUND QMUNI4 -0.000226821
 UP BOUND QMUNI4      1.1e+10
 LO BOUND QMUNI5 -0.00038723 
 UP BOUND QMUNI5      1.1e+10
 LO BOUND QMUNI6 -0.000543534
 UP BOUND QMUNI6      1.1e+10
 LO BOUND QMUNI7 -0.000227045
 UP BOUND QMUNI7      1.1e+10
 LO BOUND QMUNI8 -0.00033329 
 UP BOUND QMUNI8      1.1e+10
 LO BOUND QMUNI9 -0.000342677
 UP BOUND QMUNI9      1.1e+10
ENDATA
